formal_verification/runs/model_eval_v7_100/case_087/run/model/design_smt2.smt2
; SMT-LIBv2 description generated by Yosys 0.64+40 (git sha1 90b906c4f, clang++ 18.1.8 -fPIC -O3)
; yosys-smt2-module vert_formal_wrap
(declare-sort |vert_formal_wrap_s| 0)
(declare-fun |vert_formal_wrap_is| (|vert_formal_wrap_s|) Bool)
; yosys-smt2-witness {"offset": 0, "path": ["\\_started"], "smtname": 0, "smtoffset": 0, "type": "reg", "width": 1}
(declare-fun |vert_formal_wrap#0| (|vert_formal_wrap_s|) (_ BitVec 1)) ; \_started
; yosys-smt2-register _started 1
; yosys-smt2-wire _started 1
(define-fun |vert_formal_wrap_n _started| ((state |vert_formal_wrap_s|)) Bool (= ((_ extract 0 0) (|vert_formal_wrap#0| state)) #b1))
; yosys-smt2-wire auth_7 32
(define-fun |vert_formal_wrap_n auth_7| ((state |vert_formal_wrap_s|)) (_ BitVec 32) #b00000000000000000000000000000000)
; yosys-smt2-wire cfg_14 32
(define-fun |vert_formal_wrap_n cfg_14| ((state |vert_formal_wrap_s|)) (_ BitVec 32) #b00000000000000000000000000000000)
; yosys-smt2-wire cfg_183 32
(define-fun |vert_formal_wrap_n cfg_183| ((state |vert_formal_wrap_s|)) (_ BitVec 32) #b00000000000000000000000000000000)
; yosys-smt2-wire cfg_20 32
(define-fun |vert_formal_wrap_n cfg_20| ((state |vert_formal_wrap_s|)) (_ BitVec 32) #b00000000000000000000000000000000)
; yosys-smt2-wire chip_2 32
(define-fun |vert_formal_wrap_n chip_2| ((state |vert_formal_wrap_s|)) (_ BitVec 32) #b00000000000000000000000000000000)
; yosys-smt2-anyseq vert_formal_wrap#1 1 $auto$setundef.cc:350:execute$310
; yosys-smt2-witness {"offset": 0, "path": ["\\clock_source_19"], "smtname": 1, "smtoffset": 0, "type": "seq", "width": 1}
(declare-fun |vert_formal_wrap#1| (|vert_formal_wrap_s|) (_ BitVec 1)) ; \clock_source_19
; yosys-smt2-wire clock_source_19 1
; yosys-smt2-clock clock_source_19 posedge
(define-fun |vert_formal_wrap_n clock_source_19| ((state |vert_formal_wrap_s|)) Bool (= ((_ extract 0 0) (|vert_formal_wrap#1| state)) #b1))
; yosys-smt2-wire data_14 32
(define-fun |vert_formal_wrap_n data_14| ((state |vert_formal_wrap_s|)) (_ BitVec 32) #b00000000000000000000000000000000)
; yosys-smt2-wire data_4 32
(define-fun |vert_formal_wrap_n data_4| ((state |vert_formal_wrap_s|)) (_ BitVec 32) #b00000000000000000000000000000000)
; yosys-smt2-wire data_7 32
(define-fun |vert_formal_wrap_n data_7| ((state |vert_formal_wrap_s|)) (_ BitVec 32) #b00000000000000000000000000000000)
; yosys-smt2-wire err_8 32
(define-fun |vert_formal_wrap_n err_8| ((state |vert_formal_wrap_s|)) (_ BitVec 32) #b00000000000000000000000000000000)
; yosys-smt2-witness {"offset": 0, "path": ["$auto$async2sync.cc:107:execute$241"], "smtname": 2, "smtoffset": 0, "type": "reg", "width": 1}
(declare-fun |vert_formal_wrap#2| (|vert_formal_wrap_s|) (_ BitVec 1)) ; $auto$async2sync.cc:107:execute$241
; yosys-smt2-register $auto$async2sync.cc:107:execute$241 1
(define-fun |vert_formal_wrap_n $auto$async2sync.cc:107:execute$241| ((state |vert_formal_wrap_s|)) Bool (= ((_ extract 0 0) (|vert_formal_wrap#2| state)) #b1))
; yosys-smt2-wire fsm_8 32
(define-fun |vert_formal_wrap_n fsm_8| ((state |vert_formal_wrap_s|)) (_ BitVec 32) #b00000000000000000000000000000000)
; yosys-smt2-wire hw_17 32
(define-fun |vert_formal_wrap_n hw_17| ((state |vert_formal_wrap_s|)) (_ BitVec 32) #b00000000000000000000000000000000)
; yosys-smt2-wire rst 1
(define-fun |vert_formal_wrap_n rst| ((state |vert_formal_wrap_s|)) Bool false)
; yosys-smt2-wire rst_17 32
(define-fun |vert_formal_wrap_n rst_17| ((state |vert_formal_wrap_s|)) (_ BitVec 32) #b00000000000000000000000000000000)
; yosys-smt2-wire rx_15 32
(define-fun |vert_formal_wrap_n rx_15| ((state |vert_formal_wrap_s|)) (_ BitVec 32) #b00000000000000000000000000000000)
; yosys-smt2-wire rx_5 32
(define-fun |vert_formal_wrap_n rx_5| ((state |vert_formal_wrap_s|)) (_ BitVec 32) #b00000000000000000000000000000000)
; yosys-smt2-wire rx_6 32
(define-fun |vert_formal_wrap_n rx_6| ((state |vert_formal_wrap_s|)) (_ BitVec 32) #b00000000000000000000000000000000)
; yosys-smt2-wire tx_12 32
(define-fun |vert_formal_wrap_n tx_12| ((state |vert_formal_wrap_s|)) (_ BitVec 32) #b00000000000000000000000000000000)
; yosys-smt2-wire tx_14 32
(define-fun |vert_formal_wrap_n tx_14| ((state |vert_formal_wrap_s|)) (_ BitVec 32) #b00000000000000000000000000000000)
; yosys-smt2-wire tx_17 32
(define-fun |vert_formal_wrap_n tx_17| ((state |vert_formal_wrap_s|)) (_ BitVec 32) #b00000000000000000000000000000000)
; yosys-smt2-wire tx_33 32
(define-fun |vert_formal_wrap_n tx_33| ((state |vert_formal_wrap_s|)) (_ BitVec 32) #b00000000000000000000000000000000)
; yosys-smt2-wire tx_4 32
(define-fun |vert_formal_wrap_n tx_4| ((state |vert_formal_wrap_s|)) (_ BitVec 32) #b00000000000000000000000000000000)
(define-fun |vert_formal_wrap#3| ((state |vert_formal_wrap_s|)) (_ BitVec 1) (bvnot (|vert_formal_wrap#1| state))) ; $auto$rtlil.cc:3255:Not$313
; yosys-smt2-assume 0 $auto$formalff.cc:987:execute$314
(define-fun |vert_formal_wrap_u 0| ((state |vert_formal_wrap_s|)) Bool (or (= ((_ extract 0 0) (|vert_formal_wrap#3| state)) #b1) (not true))) ; $auto$formalff.cc:987:execute$314
; yosys-smt2-assert 0 _witness_.check_assert_vert_formal_wrap_sv_90_12 vert_formal_wrap.sv:90.7-90.61
(define-fun |vert_formal_wrap_a 0| ((state |vert_formal_wrap_s|)) Bool (or true (not (= ((_ extract 0 0) (|vert_formal_wrap#2| state)) #b1)))) ; _witness_.check_assert_vert_formal_wrap_sv_90_12
; yosys-smt2-assert 1 _witness_.check_assert_vert_formal_wrap_sv_91_17 vert_formal_wrap.sv:91.5-91.91
(define-fun |vert_formal_wrap_a 1| ((state |vert_formal_wrap_s|)) Bool (or true (not (= ((_ extract 0 0) (|vert_formal_wrap#2| state)) #b1)))) ; _witness_.check_assert_vert_formal_wrap_sv_91_17
; yosys-smt2-assert 2 _witness_.check_assert_vert_formal_wrap_sv_92_25 vert_formal_wrap.sv:92.5-92.105
(define-fun |vert_formal_wrap_a 2| ((state |vert_formal_wrap_s|)) Bool (or true (not (= ((_ extract 0 0) (|vert_formal_wrap#2| state)) #b1)))) ; _witness_.check_assert_vert_formal_wrap_sv_92_25
; yosys-smt2-assert 3 _witness_.check_assert_vert_formal_wrap_sv_93_35 vert_formal_wrap.sv:93.5-93.109
(define-fun |vert_formal_wrap_a 3| ((state |vert_formal_wrap_s|)) Bool (or true (not (= ((_ extract 0 0) (|vert_formal_wrap#2| state)) #b1)))) ; _witness_.check_assert_vert_formal_wrap_sv_93_35
; yosys-smt2-assert 4 _witness_.check_assert_vert_formal_wrap_sv_94_46 vert_formal_wrap.sv:94.5-94.62
(define-fun |vert_formal_wrap_a 4| ((state |vert_formal_wrap_s|)) Bool (or true (not (= ((_ extract 0 0) (|vert_formal_wrap#2| state)) #b1)))) ; _witness_.check_assert_vert_formal_wrap_sv_94_46
; yosys-smt2-assert 5 _witness_.check_assert_vert_formal_wrap_sv_95_52 vert_formal_wrap.sv:95.5-95.92
(define-fun |vert_formal_wrap_a 5| ((state |vert_formal_wrap_s|)) Bool (or true (not (= ((_ extract 0 0) (|vert_formal_wrap#2| state)) #b1)))) ; _witness_.check_assert_vert_formal_wrap_sv_95_52
; yosys-smt2-assert 6 _witness_.check_assert_vert_formal_wrap_sv_96_61 vert_formal_wrap.sv:96.5-96.118
(define-fun |vert_formal_wrap_a 6| ((state |vert_formal_wrap_s|)) Bool (or true (not (= ((_ extract 0 0) (|vert_formal_wrap#2| state)) #b1)))) ; _witness_.check_assert_vert_formal_wrap_sv_96_61
; yosys-smt2-assert 7 _witness_.check_assert_vert_formal_wrap_sv_97_73 vert_formal_wrap.sv:97.5-97.120
(define-fun |vert_formal_wrap_a 7| ((state |vert_formal_wrap_s|)) Bool (or true (not (= ((_ extract 0 0) (|vert_formal_wrap#2| state)) #b1)))) ; _witness_.check_assert_vert_formal_wrap_sv_97_73
(define-fun |vert_formal_wrap#4| ((state |vert_formal_wrap_s|)) (_ BitVec 1) (ite (= ((_ extract 0 0) (|vert_formal_wrap#0| state)) #b1) #b1 #b0)) ; $assert$vert_formal_wrap.sv:90$12_EN
; yosys-smt2-assume 1 _witness_.check_assume_vert_formal_wrap_sv_89_10 vert_formal_wrap.sv:89.5-89.18
(define-fun |vert_formal_wrap_u 1| ((state |vert_formal_wrap_s|)) Bool (or true (not (= ((_ extract 0 0) (|vert_formal_wrap#4| state)) #b1)))) ; _witness_.check_assume_vert_formal_wrap_sv_89_10
(define-fun |vert_formal_wrap_a| ((state |vert_formal_wrap_s|)) Bool (and
  (|vert_formal_wrap_a 0| state)
  (|vert_formal_wrap_a 1| state)
  (|vert_formal_wrap_a 2| state)
  (|vert_formal_wrap_a 3| state)
  (|vert_formal_wrap_a 4| state)
  (|vert_formal_wrap_a 5| state)
  (|vert_formal_wrap_a 6| state)
  (|vert_formal_wrap_a 7| state)
))
(define-fun |vert_formal_wrap_u| ((state |vert_formal_wrap_s|)) Bool (and
  (|vert_formal_wrap_u 0| state)
  (|vert_formal_wrap_u 1| state)
))
(define-fun |vert_formal_wrap_i| ((state |vert_formal_wrap_s|)) Bool (and
  (= (= ((_ extract 0 0) (|vert_formal_wrap#0| state)) #b1) false) ; _started
  (= (= ((_ extract 0 0) (|vert_formal_wrap#2| state)) #b1) false) ; $auto$async2sync.cc:107:execute$241
))
(define-fun |vert_formal_wrap_h| ((state |vert_formal_wrap_s|)) Bool true)
(define-fun |vert_formal_wrap_t| ((state |vert_formal_wrap_s|) (next_state |vert_formal_wrap_s|)) Bool (and
  (= (|vert_formal_wrap#4| state) (|vert_formal_wrap#2| next_state)) ; $auto$async2sync.cc:110:execute$243 $auto$async2sync.cc:107:execute$241
  (= #b1 (|vert_formal_wrap#0| next_state)) ; $procdff$210 \_started
)) ; end of module vert_formal_wrap
; yosys-smt2-topmod vert_formal_wrap
; end of yosys output
